196
192
191
199
133
190
225
47
2
207
49
51
57
56
55
52
53
54
70
71
72
73
74
75
76
216
219
217
77
78
79
80
81
95
209
96
97
98
99
100
101
102
103
104
220
105
106
107
108
109
110
111
112
113
114
115
223
116
117
187
118
119
186
185
120
175
121
122
123
124
125
126
127
128
129
222
130
211
131
86
85
82
83
84
210
87
90
91
92
93
94
221
28
204
26
25
208
24
23
13
12
11
10
9
8
7
6
5
4
197
198
200
1
3
195
194
46
45
48
193
218
44
43
42
41
40
39
38
37
36
33
34
35
202
206
31
30
29
32
14
15
16
17
203
19
20
22
21
18
50
224
205
189
27
188
60
61
62
63
64
65
66
67
68
69
58
59
184
182
173
181
174
180
179
176
177
178
172
171
170
169
168
212
214
151
150
149
152
153
154
155
156
157
144
143
201
142
141
140
139
138
137
136
183
135
134
215
164
165
166
167
213
158
163
162
161
160
159
146
148
147
145
132
88
89
196
